(set-info :source |printed by MathSAT|)
(declare-fun |!{$(in_main#0)<N>}| () Int)
(declare-fun |!{$(in_main#0)<N>}.next| () Int)
(declare-fun |!{$(in_main#0)<argmax>}| () Int)
(declare-fun |!{$(in_main#0)<argmax>}.next| () Int)
(declare-fun |!{$(in_main#0)<j>}| () Int)
(declare-fun |!{$(in_main#0)<j>}.next| () Int)
(declare-fun |!{$(in_main#0)<k>}| () Int)
(declare-fun |!{$(in_main#0)<k>}.next| () Int)
(declare-fun |!{$(in_main#0)<array.1>}| () (Array Int Int))
(declare-fun |!{$(in_main#0)<array.1>}.next| () (Array Int Int))
(declare-fun |!{$(in_main#0)<$(in___VERIFIER_nondet_int#0)<h#<__VERIFIER_nondet_int.return>>>}| () Int)
(declare-fun !pc () Int)
(declare-fun !pc.next () Int)
(declare-fun |%{$(in_main#0)<k>}#1| () Int)
(declare-fun |%{$(in_main#0)<array.1>}#1| () (Array Int Int))
(declare-fun |%{$(in_main#0)<argmax>}#2| () Int)
(define-fun .def_29 () Int (! !pc :next !pc.next))
(define-fun .def_32 () Bool (! (= .def_29 2) :init true))
(define-fun .def_154 () Bool (= .def_29 39))
(define-fun .def_109 () Bool (= !pc.next 62))
(define-fun .def_157 () Bool (and .def_109 .def_154))
(define-fun .def_150 () Bool (= |!{$(in_main#0)<k>}.next| 0))
(define-fun .def_10 () Int (! |!{$(in_main#0)<argmax>}| :next |!{$(in_main#0)<argmax>}.next|))
(define-fun .def_80 () Bool (= .def_10 |!{$(in_main#0)<argmax>}.next|))
(define-fun .def_8 () Int (! |!{$(in_main#0)<N>}| :next |!{$(in_main#0)<N>}.next|))
(define-fun .def_78 () Bool (= .def_8 |!{$(in_main#0)<N>}.next|))
(define-fun .def_89 () Bool (and .def_78 .def_80))
(define-fun .def_12 () Int (! |!{$(in_main#0)<j>}| :next |!{$(in_main#0)<j>}.next|))
(define-fun .def_82 () Bool (= .def_12 |!{$(in_main#0)<j>}.next|))
(define-fun .def_90 () Bool (and .def_82 .def_89))
(define-fun .def_151 () Bool (and .def_90 .def_150))
(define-fun .def_16 () (Array Int Int) (! |!{$(in_main#0)<array.1>}| :next |!{$(in_main#0)<array.1>}.next|))
(define-fun .def_86 () Bool (= .def_16 |!{$(in_main#0)<array.1>}.next|))
(define-fun .def_152 () Bool (and .def_86 .def_151))
(define-fun .def_120 () Bool (<= .def_12 0))
(define-fun .def_153 () Bool (and .def_120 .def_152))
(define-fun .def_158 () Bool (and .def_153 .def_157))
(define-fun .def_64 () Bool (= !pc.next 39))
(define-fun .def_155 () Bool (and .def_64 .def_154))
(define-fun .def_142 () Int (* (- 1) |!{$(in_main#0)<j>}.next|))
(define-fun .def_143 () Int (+ .def_12 .def_142))
(define-fun .def_144 () Bool (= .def_143 1))
(define-fun .def_140 () Bool (= |!{$(in_main#0)<argmax>}.next| |%{$(in_main#0)<argmax>}#2|))
(define-fun .def_141 () Bool (and .def_78 .def_140))
(define-fun .def_145 () Bool (and .def_141 .def_144))
(define-fun .def_14 () Int (! |!{$(in_main#0)<k>}| :next |!{$(in_main#0)<k>}.next|))
(define-fun .def_84 () Bool (= .def_14 |!{$(in_main#0)<k>}.next|))
(define-fun .def_146 () Bool (and .def_84 .def_145))
(define-fun .def_147 () Bool (and .def_86 .def_146))
(define-fun .def_133 () Int (* (- 1) |%{$(in_main#0)<argmax>}#2|))
(define-fun .def_134 () Int (+ .def_12 .def_133))
(define-fun .def_135 () Bool (= .def_134 1))
(define-fun .def_70 () Int (select .def_16 .def_10))
(define-fun .def_122 () Int (+ .def_12 (- 1)))
(define-fun .def_123 () Int (select .def_16 .def_122))
(define-fun .def_124 () Bool (<= .def_123 .def_70))
(define-fun .def_125 () Bool (not .def_124))
(define-fun .def_137 () Bool (and .def_125 .def_135))
(define-fun .def_132 () Bool (= .def_10 |%{$(in_main#0)<argmax>}#2|))
(define-fun .def_136 () Bool (and .def_124 .def_132))
(define-fun .def_138 () Bool (or .def_136 .def_137))
(define-fun .def_148 () Bool (and .def_138 .def_147))
(define-fun .def_121 () Bool (not .def_120))
(define-fun .def_149 () Bool (and .def_121 .def_148))
(define-fun .def_156 () Bool (and .def_149 .def_155))
(define-fun .def_159 () Bool (or .def_156 .def_158))
(define-fun .def_113 () Bool (= !pc.next 0))
(define-fun .def_104 () Bool (= .def_29 62))
(define-fun .def_114 () Bool (and .def_104 .def_113))
(define-fun .def_67 () Bool (<= .def_8 .def_14))
(define-fun .def_98 () Bool (and .def_67 .def_78))
(define-fun .def_99 () Bool (and .def_80 .def_98))
(define-fun .def_100 () Bool (and .def_82 .def_99))
(define-fun .def_101 () Bool (and .def_84 .def_100))
(define-fun .def_102 () Bool (and .def_86 .def_101))
(define-fun .def_115 () Bool (and .def_102 .def_114))
(define-fun .def_110 () Bool (and .def_104 .def_109))
(define-fun .def_91 () Int (* (- 1) |!{$(in_main#0)<k>}.next|))
(define-fun .def_92 () Int (+ .def_14 .def_91))
(define-fun .def_93 () Bool (= .def_92 (- 1)))
(define-fun .def_94 () Bool (and .def_90 .def_93))
(define-fun .def_95 () Bool (and .def_86 .def_94))
(define-fun .def_69 () Int (select .def_16 .def_14))
(define-fun .def_71 () Bool (<= .def_69 .def_70))
(define-fun .def_72 () Int (ite .def_71 1 0))
(define-fun .def_73 () Bool (= .def_72 0))
(define-fun .def_74 () Bool (not .def_73))
(define-fun .def_96 () Bool (and .def_74 .def_95))
(define-fun .def_68 () Bool (not .def_67))
(define-fun .def_97 () Bool (and .def_68 .def_96))
(define-fun .def_111 () Bool (and .def_97 .def_110))
(define-fun .def_106 () Bool (= !pc.next 82))
(define-fun .def_107 () Bool (and .def_104 .def_106))
(define-fun .def_79 () Bool (and .def_73 .def_78))
(define-fun .def_81 () Bool (and .def_79 .def_80))
(define-fun .def_83 () Bool (and .def_81 .def_82))
(define-fun .def_85 () Bool (and .def_83 .def_84))
(define-fun .def_87 () Bool (and .def_85 .def_86))
(define-fun .def_88 () Bool (and .def_68 .def_87))
(define-fun .def_108 () Bool (and .def_88 .def_107))
(define-fun .def_112 () Bool (or .def_108 .def_111))
(define-fun .def_116 () Bool (or .def_112 .def_115))
(define-fun .def_65 () Bool (and .def_32 .def_64))
(define-fun .def_60 () Bool (= |!{$(in_main#0)<array.1>}.next| |%{$(in_main#0)<array.1>}#1|))
(define-fun .def_58 () Bool (= |!{$(in_main#0)<k>}.next| |%{$(in_main#0)<k>}#1|))
(define-fun .def_56 () Bool (= |!{$(in_main#0)<j>}.next| |!{$(in_main#0)<$(in___VERIFIER_nondet_int#0)<h#<__VERIFIER_nondet_int.return>>>}|))
(define-fun .def_52 () Int (* (- 1) |!{$(in_main#0)<$(in___VERIFIER_nondet_int#0)<h#<__VERIFIER_nondet_int.return>>>}|))
(define-fun .def_53 () Int (+ |!{$(in_main#0)<argmax>}.next| .def_52))
(define-fun .def_54 () Bool (= .def_53 (- 1)))
(define-fun .def_51 () Bool (= |!{$(in_main#0)<N>}.next| |!{$(in_main#0)<$(in___VERIFIER_nondet_int#0)<h#<__VERIFIER_nondet_int.return>>>}|))
(define-fun .def_55 () Bool (and .def_51 .def_54))
(define-fun .def_57 () Bool (and .def_55 .def_56))
(define-fun .def_59 () Bool (and .def_57 .def_58))
(define-fun .def_61 () Bool (and .def_59 .def_60))
(define-fun .def_44 () Bool (<= |!{$(in_main#0)<$(in___VERIFIER_nondet_int#0)<h#<__VERIFIER_nondet_int.return>>>}| 0))
(define-fun .def_45 () Bool (not .def_44))
(define-fun .def_46 () Int (ite .def_45 1 0))
(define-fun .def_47 () Bool (= .def_46 0))
(define-fun .def_48 () Bool (not .def_47))
(define-fun .def_62 () Bool (and .def_48 .def_61))
(define-fun .def_66 () Bool (and .def_62 .def_65))
(define-fun .def_117 () Bool (or .def_66 .def_116))
(define-fun .def_160 () Bool (! (or .def_117 .def_159) :trans true))
(define-fun .def_118 () Bool (= .def_29 82))
(define-fun .def_161 () Bool (! (not .def_118) :invar-property 0 :invar-property-name ||))
(assert true)
